\ This file has been generated by DOcplex
\ ENCODING=ISO-8859-1
\Problem name: Qrandom27042_6.lp

Minimize
 obj: - 844 x0 - 422 x1 - 211 x2 - 844 x3 - 422 x4 - 211 x5 + [ 480 x0^2
      + 480 x0*x1 + 240 x0*x2 + 960 x0*x3 + 480 x0*x4 + 240 x0*x5 + 120 x1^2
      + 120 x1*x2 + 480 x1*x3 + 240 x1*x4 + 120 x1*x5 + 30 x2^2 + 240 x2*x3
      + 120 x2*x4 + 60 x2*x5 + 480 x3^2 + 480 x3*x4 + 240 x3*x5 + 120 x4^2
      + 120 x4*x5 + 30 x5^2 ]/2 + 735
Subject To

Bounds
 0 <= x0 <= 1
 0 <= x1 <= 1
 0 <= x2 <= 1
 0 <= x3 <= 1
 0 <= x4 <= 1
 0 <= x5 <= 1

Binaries
 x0 x1 x2 x3 x4 x5
End
